
  12   12
  10   10   10   10   10   10   10   10   10   10   10   10

   0   0   0   0   0   0   0   0   0   0   0   0   0   4 2 3 10 11 
   3   1   1   1   1   0   0   0   0   0   1   1   0   2 9 4 
   5   0   0   0   0   0   1   0   0   0   0   7   0   3 8 7 5 
   6   0   0   0   0   0   9   0   1   1   0   0   0   3 8 7 6 
   1   0   0   4   0   0   6   0   0   0   0   6   0   1 6 
   2   0   5   0   0   0   0   0   6   0   0   0   1   1 12
   4   7   9   0   0   0   4   1   0   9   0   0   0   1 12
  10   0   0   0   5   0   0   0   0   0   0   7   0   1 12
   9   5   0  10   0   0   0   0   0   0   9   3   0   1 12
   2   0   0   0   0   0   0   0   0   0   0   8   9   1 12
   6   7   0   0   9   0   0   9   8   0   0   3   0   1 12
   0   0   0   0   0   0   0   0   0   0   0   0   0   0 
